\ Model TSP0
\ LP format - for model browsing. Use MPS format to capture full model detail.
Minimize
  339.5305582712696 road_(0,_1) + 295.7870855869134 road_(0,_2)
   + 511.7040160092551 road_(0,_3) + 32.98484500494129 road_(0,_4)
   + 168.9615340839447 road_(0,_5) + 487.6935513209089 road_(0,_6)
   + 464.4749724150915 road_(0,_7) + 269.1635190734435 road_(0,_8)
   + 269.4828380435385 road_(0,_9) + 574.6242250375458 road_(0,_10)
   + 477.3101716913228 road_(0,_11) + 94.02127418834527 road_(0,_12)
   + 114.8564321228898 road_(0,_13) + 353.643888678993 road_(0,_14)
   + 266.9232099312459 road_(0,_15) + 204.1200627082012 road_(0,_16)
   + 336.5947117825828 road_(0,_17) + 94.84724561103501 road_(0,_18)
   + 159.6151621870554 road_(0,_19) + 222.2723554560936 road_(1,_2)
   + 798.4009018030979 road_(1,_3) + 333.1561195595843 road_(1,_4)
   + 475.1473455676671 road_(1,_5) + 723.5965726839784 road_(1,_6)
   + 682.619952828805 road_(1,_7) + 392.4334338457925 road_(1,_8)
   + 360.6244584051393 road_(1,_9) + 823.5884894776032 road_(1,_10)
   + 748.2913870946264 road_(1,_11) + 299.2473892952118 road_(1,_12)
   + 395.3795644693843 road_(1,_13) + 543.2319946394911 road_(1,_14)
   + 231.5016198647431 road_(1,_15) + 172 road_(1,_16)
   + 182.584227139148 road_(1,_17) + 244.861185164166 road_(1,_18)
   + 488.0368838520302 road_(1,_19) + 626.9106794432521 road_(2,_3)
   + 311.8236681203016 road_(2,_4) + 464.4588248704076 road_(2,_5)
   + 528.2054524519791 road_(2,_6) + 482.3121395942673 road_(2,_7)
   + 488.4270672270324 road_(2,_8) + 154.8063306199071 road_(2,_9)
   + 629.6038436985594 road_(2,_10) + 569.2319386682374 road_(2,_11)
   + 207.6968945362448 road_(2,_12) + 279.6891131238397 road_(2,_13)
   + 342.6981178821967 road_(2,_14) + 373.6656259277805 road_(2,_15)
   + 274.2353004264768 road_(2,_16) + 63.70243323453195 road_(2,_17)
   + 227.6356738299162 road_(2,_18) + 388.6450823051798 road_(2,_19)
   + 539.1706594391056 road_(3,_4) + 527.3073107780699 road_(3,_5)
   + 154.2076522096099 road_(3,_6) + 201.5589243868899 road_(3,_7)
   + 742.7624115422104 road_(3,_8) + 475.8928450817474 road_(3,_9)
   + 128.7245120402482 road_(3,_10) + 65.96969000988257 road_(3,_11)
   + 506.0958407258451 road_(3,_12) + 413.3533597299047 road_(3,_13)
   + 302.768888758406 road_(3,_14) + 778.5788335165554 road_(3,_15)
   + 708.4546562766033 road_(3,_16) + 690.6062554017303 road_(3,_17)
   + 583.1955075272786 road_(3,_18) + 360.4108766394267 road_(3,_19)
   + 154.8289378636952 road_(4,_5) + 519.3120449209704 road_(4,_6)
   + 496.8470589628161 road_(4,_7) + 236.2392854713204 road_(4,_8)
   + 297.8808486626826 road_(4,_9) + 605.1784860683664 road_(4,_10)
   + 506.6448460213525 road_(4,_11) + 119.0965994476753 road_(4,_12)
   + 147.648230602334 road_(4,_13) + 386.6264346885764 road_(4,_14)
   + 240.03333101884 road_(4,_15) + 186.0779406592839 road_(4,_16)
   + 347.9080338250325 road_(4,_17) + 94.33981132056604 road_(4,_18)
   + 182.5294496786752 road_(4,_19) + 552.0153983359522 road_(5,_6)
   + 543.721436031356 road_(5,_7) + 224.5105788153422 road_(5,_8)
   + 426.8547762412879 road_(5,_9) + 620.5489505268702 road_(5,_10)
   + 513.0662725223712 road_(5,_11) + 261.4804007951648 road_(5,_12)
   + 239.2070233082633 road_(5,_13) + 464.3317779347005 road_(5,_14)
   + 322.6701101744629 road_(5,_15) + 310.517310306527 road_(5,_16)
   + 502.6211296792048 road_(5,_17) + 248.1289987083332 road_(5,_18)
   + 189.6127632834879 road_(5,_19) + 52.32590180780452 road_(6,_7)
   + 745.9571033243132 road_(6,_8) + 373.4193353322776 road_(6,_9)
   + 101.4001972384669 road_(6,_10) + 93.14504817756014 road_(6,_11)
   + 454.0319372026598 road_(6,_12) + 375.1386410382167 road_(6,_13)
   + 185.6906028855526 road_(6,_14) + 747.7412654120408 road_(6,_15)
   + 664.1024017423819 road_(6,_16) + 590.8747752273742 road_(6,_17)
   + 538.769895224297 road_(6,_18) + 364.4008781548146 road_(6,_19)
   + 728.0398340750319 road_(7,_8) + 327.9634125935392 road_(7,_9)
   + 149.9333185119305 road_(7,_10) + 137.0036495864252 road_(7,_11)
   + 422.4275085739564 road_(7,_12) + 350.0699930013997 road_(7,_13)
   + 140.1606221447379 road_(7,_14) + 719.1279441100867 road_(7,_15)
   + 632.1218237017292 road_(7,_16) + 544.390484854392 road_(7,_17)
   + 508.1741827365889 road_(7,_18) + 354.1892149684967 road_(7,_19)
   + 521.4153814378706 road_(8,_9) + 825.0296964352253 road_(8,_10)
   + 720.8994382020283 road_(8,_11) + 343.5884165684286 road_(8,_12)
   + 382.7231375289453 road_(8,_13) + 622.6564060539328 road_(8,_14)
   + 168.0743882928033 road_(8,_15) + 229.9304242591659 road_(8,_16)
   + 499.7849537551126 road_(8,_17) + 273.2123716086078 road_(8,_18)
   + 386.2538025702789 road_(8,_19) + 474.8136476555829 road_(9,_10)
   + 416.473288459176 road_(9,_11) + 179.9138682814641 road_(9,_12)
   + 194.7947637899951 road_(9,_13) + 188.0452073305778 road_(9,_14)
   + 450.8802501773614 road_(9,_15) + 351.4455861154042 road_(9,_16)
   + 217.8003673091485 road_(9,_17) + 250.9123352886422 road_(9,_18)
   + 294.5674795356745 road_(9,_19) + 108.9311709291698 road_(10,_11)
   + 548.6756783383058 road_(10,_12) + 465.09891421073 road_(10,_13)
   + 287.062710918712 road_(10,_14) + 838.4658609627467 road_(10,_15)
   + 758.1253194558271 road_(10,_16) + 692.2665671545897 road_(10,_17)
   + 632.1336883919413 road_(10,_18) + 439.0558051091 road_(10,_19)
   + 461.619973571335 road_(11,_12) + 372.4258315423354 road_(11,_13)
   + 238.9079320575188 road_(11,_14) + 743.5327834063539 road_(11,_15)
   + 668.1466904804663 road_(11,_16) + 632.8925659225268 road_(11,_17)
   + 542.0452010672173 road_(11,_18) + 334.7237667092076 road_(11,_19)
   + 96.16652224137046 road_(12,_13) + 296.108088373148 road_(12,_14)
   + 298.0603965641863 road_(12,_15) + 210.0975963689257 road_(12,_16)
   + 255.327241006517 road_(12,_17) + 86.09297300012354 road_(12,_18)
   + 194.5893111144597 road_(12,_19) + 240.3331021727968 road_(13,_14)
   + 373.4059453195677 road_(13,_15) + 295.8462438497403 road_(13,_16)
   + 335.4400095397089 road_(13,_17) + 170 road_(13,_18)
   + 109.0366910723175 road_(13,_19) + 594.0033669938243 road_(14,_15)
   + 502.4390510300727 road_(14,_16) + 405.2159917870962 road_(14,_17)
   + 382.020941834345 road_(14,_18) + 281.4693589007514 road_(14,_19)
   + 101.237344888139 road_(15,_16) + 368.0869462504749 road_(15,_17)
   + 212.0094337523687 road_(15,_18) + 422.2380844973603 road_(15,_19)
   + 274.4175650354766 road_(16,_17) + 126.1942946412396 road_(16,_18)
   + 363.6316817880422 road_(16,_19) + 257.0992026436488 road_(17,_18)
   + 443.6000450856604 road_(17,_19) + 246.9028148887736 road_(18,_19)
Subject To
 c1_0(18,_19): road_(0,_1) + road_(0,_2) + road_(0,_3) + road_(0,_4)
   + road_(0,_5) + road_(0,_6) + road_(0,_7) + road_(0,_8) + road_(0,_9)
   + road_(0,_10) + road_(0,_11) + road_(0,_12) + road_(0,_13)
   + road_(0,_14) + road_(0,_15) + road_(0,_16) + road_(0,_17)
   + road_(0,_18) + road_(0,_19) = 2
 c1_1(18,_19): road_(0,_1) + road_(1,_2) + road_(1,_3) + road_(1,_4)
   + road_(1,_5) + road_(1,_6) + road_(1,_7) + road_(1,_8) + road_(1,_9)
   + road_(1,_10) + road_(1,_11) + road_(1,_12) + road_(1,_13)
   + road_(1,_14) + road_(1,_15) + road_(1,_16) + road_(1,_17)
   + road_(1,_18) + road_(1,_19) = 2
 c1_2(18,_19): road_(0,_2) + road_(1,_2) + road_(2,_3) + road_(2,_4)
   + road_(2,_5) + road_(2,_6) + road_(2,_7) + road_(2,_8) + road_(2,_9)
   + road_(2,_10) + road_(2,_11) + road_(2,_12) + road_(2,_13)
   + road_(2,_14) + road_(2,_15) + road_(2,_16) + road_(2,_17)
   + road_(2,_18) + road_(2,_19) = 2
 c1_3(18,_19): road_(0,_3) + road_(1,_3) + road_(2,_3) + road_(3,_4)
   + road_(3,_5) + road_(3,_6) + road_(3,_7) + road_(3,_8) + road_(3,_9)
   + road_(3,_10) + road_(3,_11) + road_(3,_12) + road_(3,_13)
   + road_(3,_14) + road_(3,_15) + road_(3,_16) + road_(3,_17)
   + road_(3,_18) + road_(3,_19) = 2
 c1_4(18,_19): road_(0,_4) + road_(1,_4) + road_(2,_4) + road_(3,_4)
   + road_(4,_5) + road_(4,_6) + road_(4,_7) + road_(4,_8) + road_(4,_9)
   + road_(4,_10) + road_(4,_11) + road_(4,_12) + road_(4,_13)
   + road_(4,_14) + road_(4,_15) + road_(4,_16) + road_(4,_17)
   + road_(4,_18) + road_(4,_19) = 2
 c1_5(18,_19): road_(0,_5) + road_(1,_5) + road_(2,_5) + road_(3,_5)
   + road_(4,_5) + road_(5,_6) + road_(5,_7) + road_(5,_8) + road_(5,_9)
   + road_(5,_10) + road_(5,_11) + road_(5,_12) + road_(5,_13)
   + road_(5,_14) + road_(5,_15) + road_(5,_16) + road_(5,_17)
   + road_(5,_18) + road_(5,_19) = 2
 c1_6(18,_19): road_(0,_6) + road_(1,_6) + road_(2,_6) + road_(3,_6)
   + road_(4,_6) + road_(5,_6) + road_(6,_7) + road_(6,_8) + road_(6,_9)
   + road_(6,_10) + road_(6,_11) + road_(6,_12) + road_(6,_13)
   + road_(6,_14) + road_(6,_15) + road_(6,_16) + road_(6,_17)
   + road_(6,_18) + road_(6,_19) = 2
 c1_7(18,_19): road_(0,_7) + road_(1,_7) + road_(2,_7) + road_(3,_7)
   + road_(4,_7) + road_(5,_7) + road_(6,_7) + road_(7,_8) + road_(7,_9)
   + road_(7,_10) + road_(7,_11) + road_(7,_12) + road_(7,_13)
   + road_(7,_14) + road_(7,_15) + road_(7,_16) + road_(7,_17)
   + road_(7,_18) + road_(7,_19) = 2
 c1_8(18,_19): road_(0,_8) + road_(1,_8) + road_(2,_8) + road_(3,_8)
   + road_(4,_8) + road_(5,_8) + road_(6,_8) + road_(7,_8) + road_(8,_9)
   + road_(8,_10) + road_(8,_11) + road_(8,_12) + road_(8,_13)
   + road_(8,_14) + road_(8,_15) + road_(8,_16) + road_(8,_17)
   + road_(8,_18) + road_(8,_19) = 2
 c1_9(18,_19): road_(0,_9) + road_(1,_9) + road_(2,_9) + road_(3,_9)
   + road_(4,_9) + road_(5,_9) + road_(6,_9) + road_(7,_9) + road_(8,_9)
   + road_(9,_10) + road_(9,_11) + road_(9,_12) + road_(9,_13)
   + road_(9,_14) + road_(9,_15) + road_(9,_16) + road_(9,_17)
   + road_(9,_18) + road_(9,_19) = 2
 c1_10(18,_19): road_(0,_10) + road_(1,_10) + road_(2,_10) + road_(3,_10)
   + road_(4,_10) + road_(5,_10) + road_(6,_10) + road_(7,_10)
   + road_(8,_10) + road_(9,_10) + road_(10,_11) + road_(10,_12)
   + road_(10,_13) + road_(10,_14) + road_(10,_15) + road_(10,_16)
   + road_(10,_17) + road_(10,_18) + road_(10,_19) = 2
 c1_11(18,_19): road_(0,_11) + road_(1,_11) + road_(2,_11) + road_(3,_11)
   + road_(4,_11) + road_(5,_11) + road_(6,_11) + road_(7,_11)
   + road_(8,_11) + road_(9,_11) + road_(10,_11) + road_(11,_12)
   + road_(11,_13) + road_(11,_14) + road_(11,_15) + road_(11,_16)
   + road_(11,_17) + road_(11,_18) + road_(11,_19) = 2
 c1_12(18,_19): road_(0,_12) + road_(1,_12) + road_(2,_12) + road_(3,_12)
   + road_(4,_12) + road_(5,_12) + road_(6,_12) + road_(7,_12)
   + road_(8,_12) + road_(9,_12) + road_(10,_12) + road_(11,_12)
   + road_(12,_13) + road_(12,_14) + road_(12,_15) + road_(12,_16)
   + road_(12,_17) + road_(12,_18) + road_(12,_19) = 2
 c1_13(18,_19): road_(0,_13) + road_(1,_13) + road_(2,_13) + road_(3,_13)
   + road_(4,_13) + road_(5,_13) + road_(6,_13) + road_(7,_13)
   + road_(8,_13) + road_(9,_13) + road_(10,_13) + road_(11,_13)
   + road_(12,_13) + road_(13,_14) + road_(13,_15) + road_(13,_16)
   + road_(13,_17) + road_(13,_18) + road_(13,_19) = 2
 c1_14(18,_19): road_(0,_14) + road_(1,_14) + road_(2,_14) + road_(3,_14)
   + road_(4,_14) + road_(5,_14) + road_(6,_14) + road_(7,_14)
   + road_(8,_14) + road_(9,_14) + road_(10,_14) + road_(11,_14)
   + road_(12,_14) + road_(13,_14) + road_(14,_15) + road_(14,_16)
   + road_(14,_17) + road_(14,_18) + road_(14,_19) = 2
 c1_15(18,_19): road_(0,_15) + road_(1,_15) + road_(2,_15) + road_(3,_15)
   + road_(4,_15) + road_(5,_15) + road_(6,_15) + road_(7,_15)
   + road_(8,_15) + road_(9,_15) + road_(10,_15) + road_(11,_15)
   + road_(12,_15) + road_(13,_15) + road_(14,_15) + road_(15,_16)
   + road_(15,_17) + road_(15,_18) + road_(15,_19) = 2
 c1_16(18,_19): road_(0,_16) + road_(1,_16) + road_(2,_16) + road_(3,_16)
   + road_(4,_16) + road_(5,_16) + road_(6,_16) + road_(7,_16)
   + road_(8,_16) + road_(9,_16) + road_(10,_16) + road_(11,_16)
   + road_(12,_16) + road_(13,_16) + road_(14,_16) + road_(15,_16)
   + road_(16,_17) + road_(16,_18) + road_(16,_19) = 2
 c1_17(18,_19): road_(0,_17) + road_(1,_17) + road_(2,_17) + road_(3,_17)
   + road_(4,_17) + road_(5,_17) + road_(6,_17) + road_(7,_17)
   + road_(8,_17) + road_(9,_17) + road_(10,_17) + road_(11,_17)
   + road_(12,_17) + road_(13,_17) + road_(14,_17) + road_(15,_17)
   + road_(16,_17) + road_(17,_18) + road_(17,_19) = 2
 c1_18(18,_19): road_(0,_18) + road_(1,_18) + road_(2,_18) + road_(3,_18)
   + road_(4,_18) + road_(5,_18) + road_(6,_18) + road_(7,_18)
   + road_(8,_18) + road_(9,_18) + road_(10,_18) + road_(11,_18)
   + road_(12,_18) + road_(13,_18) + road_(14,_18) + road_(15,_18)
   + road_(16,_18) + road_(17,_18) + road_(18,_19) = 2
 c1_19(18,_19): road_(0,_19) + road_(1,_19) + road_(2,_19) + road_(3,_19)
   + road_(4,_19) + road_(5,_19) + road_(6,_19) + road_(7,_19)
   + road_(8,_19) + road_(9,_19) + road_(10,_19) + road_(11,_19)
   + road_(12,_19) + road_(13,_19) + road_(14,_19) + road_(15,_19)
   + road_(16,_19) + road_(17,_19) + road_(18,_19) = 2
Bounds
 road_(0,_1) <= 1
 road_(0,_2) <= 1
 road_(0,_3) <= 1
 road_(0,_4) <= 1
 road_(0,_5) <= 1
 road_(0,_6) <= 1
 road_(0,_7) <= 1
 road_(0,_8) <= 1
 road_(0,_9) <= 1
 road_(0,_10) <= 1
 road_(0,_11) <= 1
 road_(0,_12) <= 1
 road_(0,_13) <= 1
 road_(0,_14) <= 1
 road_(0,_15) <= 1
 road_(0,_16) <= 1
 road_(0,_17) <= 1
 road_(0,_18) <= 1
 road_(0,_19) <= 1
 road_(1,_2) <= 1
 road_(1,_3) <= 1
 road_(1,_4) <= 1
 road_(1,_5) <= 1
 road_(1,_6) <= 1
 road_(1,_7) <= 1
 road_(1,_8) <= 1
 road_(1,_9) <= 1
 road_(1,_10) <= 1
 road_(1,_11) <= 1
 road_(1,_12) <= 1
 road_(1,_13) <= 1
 road_(1,_14) <= 1
 road_(1,_15) <= 1
 road_(1,_16) <= 1
 road_(1,_17) <= 1
 road_(1,_18) <= 1
 road_(1,_19) <= 1
 road_(2,_3) <= 1
 road_(2,_4) <= 1
 road_(2,_5) <= 1
 road_(2,_6) <= 1
 road_(2,_7) <= 1
 road_(2,_8) <= 1
 road_(2,_9) <= 1
 road_(2,_10) <= 1
 road_(2,_11) <= 1
 road_(2,_12) <= 1
 road_(2,_13) <= 1
 road_(2,_14) <= 1
 road_(2,_15) <= 1
 road_(2,_16) <= 1
 road_(2,_17) <= 1
 road_(2,_18) <= 1
 road_(2,_19) <= 1
 road_(3,_4) <= 1
 road_(3,_5) <= 1
 road_(3,_6) <= 1
 road_(3,_7) <= 1
 road_(3,_8) <= 1
 road_(3,_9) <= 1
 road_(3,_10) <= 1
 road_(3,_11) <= 1
 road_(3,_12) <= 1
 road_(3,_13) <= 1
 road_(3,_14) <= 1
 road_(3,_15) <= 1
 road_(3,_16) <= 1
 road_(3,_17) <= 1
 road_(3,_18) <= 1
 road_(3,_19) <= 1
 road_(4,_5) <= 1
 road_(4,_6) <= 1
 road_(4,_7) <= 1
 road_(4,_8) <= 1
 road_(4,_9) <= 1
 road_(4,_10) <= 1
 road_(4,_11) <= 1
 road_(4,_12) <= 1
 road_(4,_13) <= 1
 road_(4,_14) <= 1
 road_(4,_15) <= 1
 road_(4,_16) <= 1
 road_(4,_17) <= 1
 road_(4,_18) <= 1
 road_(4,_19) <= 1
 road_(5,_6) <= 1
 road_(5,_7) <= 1
 road_(5,_8) <= 1
 road_(5,_9) <= 1
 road_(5,_10) <= 1
 road_(5,_11) <= 1
 road_(5,_12) <= 1
 road_(5,_13) <= 1
 road_(5,_14) <= 1
 road_(5,_15) <= 1
 road_(5,_16) <= 1
 road_(5,_17) <= 1
 road_(5,_18) <= 1
 road_(5,_19) <= 1
 road_(6,_7) <= 1
 road_(6,_8) <= 1
 road_(6,_9) <= 1
 road_(6,_10) <= 1
 road_(6,_11) <= 1
 road_(6,_12) <= 1
 road_(6,_13) <= 1
 road_(6,_14) <= 1
 road_(6,_15) <= 1
 road_(6,_16) <= 1
 road_(6,_17) <= 1
 road_(6,_18) <= 1
 road_(6,_19) <= 1
 road_(7,_8) <= 1
 road_(7,_9) <= 1
 road_(7,_10) <= 1
 road_(7,_11) <= 1
 road_(7,_12) <= 1
 road_(7,_13) <= 1
 road_(7,_14) <= 1
 road_(7,_15) <= 1
 road_(7,_16) <= 1
 road_(7,_17) <= 1
 road_(7,_18) <= 1
 road_(7,_19) <= 1
 road_(8,_9) <= 1
 road_(8,_10) <= 1
 road_(8,_11) <= 1
 road_(8,_12) <= 1
 road_(8,_13) <= 1
 road_(8,_14) <= 1
 road_(8,_15) <= 1
 road_(8,_16) <= 1
 road_(8,_17) <= 1
 road_(8,_18) <= 1
 road_(8,_19) <= 1
 road_(9,_10) <= 1
 road_(9,_11) <= 1
 road_(9,_12) <= 1
 road_(9,_13) <= 1
 road_(9,_14) <= 1
 road_(9,_15) <= 1
 road_(9,_16) <= 1
 road_(9,_17) <= 1
 road_(9,_18) <= 1
 road_(9,_19) <= 1
 road_(10,_11) <= 1
 road_(10,_12) <= 1
 road_(10,_13) <= 1
 road_(10,_14) <= 1
 road_(10,_15) <= 1
 road_(10,_16) <= 1
 road_(10,_17) <= 1
 road_(10,_18) <= 1
 road_(10,_19) <= 1
 road_(11,_12) <= 1
 road_(11,_13) <= 1
 road_(11,_14) <= 1
 road_(11,_15) <= 1
 road_(11,_16) <= 1
 road_(11,_17) <= 1
 road_(11,_18) <= 1
 road_(11,_19) <= 1
 road_(12,_13) <= 1
 road_(12,_14) <= 1
 road_(12,_15) <= 1
 road_(12,_16) <= 1
 road_(12,_17) <= 1
 road_(12,_18) <= 1
 road_(12,_19) <= 1
 road_(13,_14) <= 1
 road_(13,_15) <= 1
 road_(13,_16) <= 1
 road_(13,_17) <= 1
 road_(13,_18) <= 1
 road_(13,_19) <= 1
 road_(14,_15) <= 1
 road_(14,_16) <= 1
 road_(14,_17) <= 1
 road_(14,_18) <= 1
 road_(14,_19) <= 1
 road_(15,_16) <= 1
 road_(15,_17) <= 1
 road_(15,_18) <= 1
 road_(15,_19) <= 1
 road_(16,_17) <= 1
 road_(16,_18) <= 1
 road_(16,_19) <= 1
 road_(17,_18) <= 1
 road_(17,_19) <= 1
 road_(18,_19) <= 1
Generals
 road_(0,_1) road_(0,_2) road_(0,_3) road_(0,_4) road_(0,_5) road_(0,_6)
 road_(0,_7) road_(0,_8) road_(0,_9) road_(0,_10) road_(0,_11) road_(0,_12)
 road_(0,_13) road_(0,_14) road_(0,_15) road_(0,_16) road_(0,_17)
 road_(0,_18) road_(0,_19) road_(1,_2) road_(1,_3) road_(1,_4) road_(1,_5)
 road_(1,_6) road_(1,_7) road_(1,_8) road_(1,_9) road_(1,_10) road_(1,_11)
 road_(1,_12) road_(1,_13) road_(1,_14) road_(1,_15) road_(1,_16)
 road_(1,_17) road_(1,_18) road_(1,_19) road_(2,_3) road_(2,_4) road_(2,_5)
 road_(2,_6) road_(2,_7) road_(2,_8) road_(2,_9) road_(2,_10) road_(2,_11)
 road_(2,_12) road_(2,_13) road_(2,_14) road_(2,_15) road_(2,_16)
 road_(2,_17) road_(2,_18) road_(2,_19) road_(3,_4) road_(3,_5) road_(3,_6)
 road_(3,_7) road_(3,_8) road_(3,_9) road_(3,_10) road_(3,_11) road_(3,_12)
 road_(3,_13) road_(3,_14) road_(3,_15) road_(3,_16) road_(3,_17)
 road_(3,_18) road_(3,_19) road_(4,_5) road_(4,_6) road_(4,_7) road_(4,_8)
 road_(4,_9) road_(4,_10) road_(4,_11) road_(4,_12) road_(4,_13)
 road_(4,_14) road_(4,_15) road_(4,_16) road_(4,_17) road_(4,_18)
 road_(4,_19) road_(5,_6) road_(5,_7) road_(5,_8) road_(5,_9) road_(5,_10)
 road_(5,_11) road_(5,_12) road_(5,_13) road_(5,_14) road_(5,_15)
 road_(5,_16) road_(5,_17) road_(5,_18) road_(5,_19) road_(6,_7)
 road_(6,_8) road_(6,_9) road_(6,_10) road_(6,_11) road_(6,_12)
 road_(6,_13) road_(6,_14) road_(6,_15) road_(6,_16) road_(6,_17)
 road_(6,_18) road_(6,_19) road_(7,_8) road_(7,_9) road_(7,_10)
 road_(7,_11) road_(7,_12) road_(7,_13) road_(7,_14) road_(7,_15)
 road_(7,_16) road_(7,_17) road_(7,_18) road_(7,_19) road_(8,_9)
 road_(8,_10) road_(8,_11) road_(8,_12) road_(8,_13) road_(8,_14)
 road_(8,_15) road_(8,_16) road_(8,_17) road_(8,_18) road_(8,_19)
 road_(9,_10) road_(9,_11) road_(9,_12) road_(9,_13) road_(9,_14)
 road_(9,_15) road_(9,_16) road_(9,_17) road_(9,_18) road_(9,_19)
 road_(10,_11) road_(10,_12) road_(10,_13) road_(10,_14) road_(10,_15)
 road_(10,_16) road_(10,_17) road_(10,_18) road_(10,_19) road_(11,_12)
 road_(11,_13) road_(11,_14) road_(11,_15) road_(11,_16) road_(11,_17)
 road_(11,_18) road_(11,_19) road_(12,_13) road_(12,_14) road_(12,_15)
 road_(12,_16) road_(12,_17) road_(12,_18) road_(12,_19) road_(13,_14)
 road_(13,_15) road_(13,_16) road_(13,_17) road_(13,_18) road_(13,_19)
 road_(14,_15) road_(14,_16) road_(14,_17) road_(14,_18) road_(14,_19)
 road_(15,_16) road_(15,_17) road_(15,_18) road_(15,_19) road_(16,_17)
 road_(16,_18) road_(16,_19) road_(17,_18) road_(17,_19) road_(18,_19)
End
